CMD:
./solvers/bin/cadical --plain --no-reduce -t 1600 ./data/cnfs//bobsmi2c/bobsmi2c.7.cnf

c --- [ banner ] -------------------------------------------------------------
c 
c CaDiCaL SAT Solver
c Copyright (c) 2016-2024
c A. Biere, M. Fleury, N. Froleyks, K. Fazekas, F. Pollitt, T. Faller
c JKU Linz, University of Freiburg, TU Wien
c 
c Version 2.1.3 5296d3d2a9bf48c154ab2acb5e44625776d821bf
c g++ (Gentoo 12.3.1_p20230526 p2) 12.3.1 20230526 -Wall -Wextra -O3 -DNDEBUG
c Sat Aug 9 07:26:21 PDT 2025 Linux cedar2.int.cedar.computecanada.ca 5.14.0-362.24.2.el9_3.x86_64 x86_64
c 
c --- [ limit ] --------------------------------------------------------------
c 
c setting time limit to 1600 seconds real time (due to '-t 1600')
c 
c --- [ parsing input ] ------------------------------------------------------
c 
c reading DIMACS file from './data/cnfs//bobsmi2c/bobsmi2c.7.cnf'
c opening file to read './data/cnfs//bobsmi2c/bobsmi2c.7.cnf'
c found 'p cnf 14982 43988' header
c parsed 43988 clauses in 0.01 seconds process time
c 
c --- [ options ] ------------------------------------------------------------
c 
c   --compact=false                (different from default 'true')
c   --decompose=false              (different from default 'true')
c   --deduplicate=false            (different from default 'true')
c   --elim=false                   (different from default 'true')
c   --probe=false                  (different from default 'true')
c   --reduce=false                 (different from default 'true')
c   --subsume=false                (different from default 'true')
c   --ternary=false                (different from default 'true')
c   --transred=false               (different from default 'true')
c   --vivify=false                 (different from default 'true')
c 
c --- [ solving ] ------------------------------------------------------------
c 
c time measured in process time since initialization
c 
c  seconds  reductions  redundant  irredundant
c         MB    restarts       trail      variables
c          level   conflicts       glue        remaining
c 
c *  0.01 10  0 0   0    0    0  0% 0 38517 11480 77%
c {  0.01 10  0 0   0    0    0  0% 0 38517 11480 77%
c i  0.01 11 42 0   1   55   45 40% 2 38517 11477 77%
c i  0.01 11 40 0   3  146  130 56% 2 38517 11450 76%
c i  0.01 11 40 0   3  150  133 55% 2 38517 11417 76%
c i  0.02 11 39 0  10  187  168 57% 3 38517 11362 76%
c i  0.02 11 36 0  22  225  202 56% 3 38517 11353 76%
c i  0.02 11 36 0  22  226  202 56% 3 38517 11194 75%
c i  0.04 11 32 0  79  546  497 59% 4 38517 11189 75%
c i  0.04 11 32 0  82  573  522 58% 4 38517 11180 75%
c i  0.04 11 31 0  82  587  532 58% 4 38517 11142 74%
c i  0.05 11 29 0 111  778  699 57% 4 38517 11067 74%
c i  0.06 11 29 0 115  796  714 57% 4 38517 10848 72%
c }  0.08 11 29 0 163 1001  901 58% 5 38517 10848 72%
c [  0.08 11  0 0 163 1001  901  0% 0 38517 10848 72%
c O  0.08 11 75 0 163 1002  902 86% 4 38517 10848 72%
c ]  0.18 11 44 0 164 3002 2666 64% 8 38517 10848 72%
c {  0.18 11 29 0 164 3002 2666 58% 5 38517 10848 72%
c F  0.18 11 29 0 165 3003 2667 58% 5 38517 10848 72%
c i  0.19 11 28 0 185 3081 2737 57% 5 38517 10843 72%
c 
c  seconds  reductions  redundant  irredundant
c         MB    restarts       trail      variables
c          level   conflicts       glue        remaining
c 
c i  0.19 11 28 0 196 3128 2775 57% 5 38517 10824 72%
c i  0.20 11 27 0 221 3249 2881 56% 5 38517 10823 72%
c i  0.20 11 27 0 221 3252 2882 56% 5 38517 10781 72%
c i  0.20 11 27 0 224 3271 2885 56% 5 38517 10737 72%
c i  0.21 11 27 0 224 3272 2885 56% 5 38517 10714 72%
c i  0.21 11 27 0 237 3324 2931 57% 5 38517 10710 71%
c i  0.24 11 24 0 266 3801 3341 57% 5 38517 10698 71%
c i  0.25 11 23 0 299 3982 3487 58% 5 38517 10694 71%
c i  0.27 11 22 0 314 4305 3679 58% 5 38517 10185 68%
c i  0.29 12 20 0 321 4748 4050 58% 5 38517 10058 67%
c i  0.30 12 19 0 321 4889 4144 58% 5 38517 9966 67%
c i  0.30 12 19 0 321 4947 4190 58% 5 38517 9946 66%
c i  0.31 12 19 0 321 4993 4211 58% 5 38517 9855 66%
c i  0.31 12 19 0 321 4996 4212 58% 5 38517 9763 65%
c }  0.31 12 19 0 321 5001 4212 58% 5 38517 9549 64%
c 0  0.31 12 19 0 321 5001 4212 58% 5 38517 9549 64%
c 
c --- [ result ] -------------------------------------------------------------
c 
s UNSATISFIABLE
c 
c --- [ run-time profiling ] -------------------------------------------------
c 
c process time taken by individual solving procedures
c (percentage relative to process time for solving)
c 
c         0.30   99.96% search
c         0.19   63.12% unstable
c         0.11   35.95% stable
c         0.01    2.50% parse
c         0.00    0.87% lucky
c         0.00    0.00% simplify
c   =================================
c         0.30   97.42% solve
c 
c last line shows process time for solving
c (percentage relative to total process time)
c 
c --- [ statistics ] ---------------------------------------------------------
c 
c chronological:              2326        46.51 %  of conflicts
c conflicts:                  5001     16685.29    per second
c decisions:                 17107     57075.65    per second
c fixed:                      5431        36.25 %  of all variables
c learned:                    4787        95.72 %  per conflict
c learned_lits:             115287       100.00 %  learned literals
c minimized:                     0         0.00 %  learned literals
c shrunken:                  27112        23.52 %  learned literals
c minishrunken:              15183        13.17 %  learned literals
c otfs:                         43         0.86 %  of conflict
c propagations:            5159192        17.21 M  per second
c rephased:                      2      2500.50    interval
c restarts:                    321        15.58    interval
c stabilizing:                   1        40.01 %  of conflicts
c subsumed:                    548         1.27 %  of all clauses
c strengthened:                 42         0.10 %  of all clauses
c 
c seconds are measured in process time for solving
c 
c --- [ resources ] ----------------------------------------------------------
c 
c total process time since initialization:         0.31    seconds
c total real time since initialization:            0.31    seconds
c maximum resident set size of process:           29.21    MB
c 
c --- [ shutting down ] ------------------------------------------------------
c 
c exit 20
